c --- [ banner ] -------------------------------------------------------------
c 
c CaDiCaL Radically Simplified CDCL SAT Solver
c Copyright (c) 2016-2021 A. Biere, M. Fleury, N. Froleyks
c 
c Version 1.5.2 ca9bff05c11bde5eae4912f9932871d1527e61d8
c g++ (GCC) 9.3.0 -Wall -Wextra -O3 -DNDEBUG
c Sun May 1 02:23:23 EDT 2022 Linux gra-login1 3.10.0-1160.59.1.el7.x86_64 x86_64
c 
c --- [ limit ] --------------------------------------------------------------
c 
c setting conflict limit to 200000 conflicts (due to '200000')
c 
c --- [ parsing input ] ------------------------------------------------------
c 
c reading DIMACS file from '12.cubes74.adj'
c opening file to read '12.cubes74.adj'
c found 'p cnf 5320 924208' header
c parsed 924208 clauses in 8.68 seconds process time
c closing file '12.cubes74.adj'
c after reading 686668101 bytes 654.9 MB
c 
c --- [ options ] ------------------------------------------------------------
c 
c all options are set to their default value
c 
c --- [ solving ] ------------------------------------------------------------
c 
c time measured in process time since initialization
c 
c  seconds   reductions  redundant  irredundant
c          MB    restarts       trail      variables
c           level   conflicts       glue        remaining
c 
c *  8.68 677  0 0   0    0    0  0% 0 923580 4153 78%
c {  9.18 704  0 0   0    0    0  0% 0 923580 4153 78%
c i  9.79 737 41 0   0   16   14 50% 6 923580 4143 78%
c i 10.40 752 47 0   2   35   32 48% 10 923580 4138 78%
c i 11.29 765 50 0   8   70   60 46% 12 923580 4137 78%
c i 11.30 765 49 0   8   72   61 46% 12 923580 4136 78%
c i 11.30 765 48 0   8   73   61 46% 12 923580 4135 78%
c i 12.14 768 36 0  10  273  105 40% 9 923580 4125 78%
c i 12.29 768 40 0  13  282  112 40% 11 923580 4124 78%
c i 12.33 768 44 0  14  289  115 41% 11 923580 4122 77%
c - 15.00 742 47 1  18  300  126 41% 12 579743 4122 77%
c i 15.08 743 47 1  20  311  132 41% 13 579743 4121 77%
c i 15.10 743 47 1  21  312  132 41% 13 579743 4120 77%
c i 15.26 744 60 1  28  343  149 42% 15 579743 4119 77%
c i 15.50 744 33 1  45  837  242 40% 11 579743 4118 77%
c i 15.50 744 33 1  45  838  242 40% 11 579743 4117 77%
c i 15.50 744 33 1  45  839  242 40% 11 579743 4116 77%
c i 15.50 744 33 1  45  840  242 40% 11 579743 4115 77%
c i 15.50 744 33 1  45  841  242 40% 11 579743 4114 77%
c i 15.50 744 33 1  45  842  242 40% 11 579743 4113 77%
c 
c  seconds   reductions  redundant   irredundant
c          MB    restarts       trail       variables
c           level   conflicts       glue         remaining
c 
c i 15.50 744 33 1  45  843  242 40% 11 579743 4112 77%
c i 15.50 744 33 1  45  844  242 40% 11 579743 4111 77%
c i 15.50 744 33 1  45  845  242 40% 11 579743 4110 77%
c i 15.55 745 33 1  45  855  251 40% 11 579743 4109 77%
c i 15.56 745 33 1  45  858  252 40% 11 579743 4108 77%
c i 15.68 746 33 1  45  863  255 40% 11 579743 4107 77%
c i 15.68 746 32 1  45  864  255 40% 11 579743 4106 77%
c i 15.70 746 32 1  45  866  256 40% 11 579743 4105 77%
c i 15.70 746 32 1  45  867  256 40% 11 579743 4104 77%
c i 15.70 746 32 1  45  868  256 40% 11 579743 4103 77%
c i 15.70 746 32 1  45  869  256 40% 11 579743 4102 77%
c i 15.70 746 32 1  45  870  256 40% 11 579743 4101 77%
c i 15.71 746 32 1  45  874  259 40% 11 579743 4100 77%
c i 15.72 746 32 1  45  875  259 40% 11 579743 4099 77%
c i 15.72 746 32 1  45  876  259 41% 11 579743 4098 77%
c i 15.72 746 32 1  45  877  259 41% 11 579743 4097 77%
c i 15.74 746 32 1  45  880  261 41% 11 579743 4096 77%
c i 15.74 746 32 1  45  881  261 41% 11 579743 4095 77%
c i 15.74 746 32 1  45  882  261 41% 11 579743 4094 77%
c i 15.74 746 32 1  45  883  261 41% 11 579743 4093 77%
c 
c  seconds   reductions  redundant   irredundant
c          MB    restarts       trail       variables
c           level   conflicts       glue         remaining
c 
c i 15.74 746 32 1  45  884  261 41% 11 579743 4092 77%
c i 15.74 746 32 1  45  885  261 41% 11 579743 4091 77%
c i 15.74 746 32 1  45  886  261 41% 11 579743 4090 77%
c i 15.74 746 32 1  45  887  261 41% 11 579743 4089 77%
c i 15.74 746 32 1  45  888  261 41% 11 579743 4088 77%
c i 15.81 746 33 1  46  925  287 41% 11 579743 4087 77%
c i 15.81 746 33 1  47  926  287 41% 11 579743 4086 77%
c i 15.81 746 33 1  47  928  288 41% 11 579743 4085 77%
c i 15.81 746 33 1  48  929  288 41% 11 579743 4084 77%
c i 15.81 746 33 1  48  930  288 41% 11 579743 4083 77%
c i 15.81 746 33 1  48  931  288 41% 11 579743 4082 77%
c i 15.81 746 33 1  49  933  289 41% 11 579743 4081 77%
c i 15.81 746 33 1  49  934  289 41% 11 579743 4080 77%
c i 15.81 746 33 1  50  935  289 41% 11 579743 4079 77%
c i 15.81 746 33 1  50  936  289 41% 11 579743 4078 77%
c i 15.81 746 33 1  50  937  289 41% 11 579743 4077 77%
c i 15.81 746 33 1  51  938  289 41% 11 579743 4076 77%
c i 15.81 746 32 1  51  939  289 41% 11 579743 4075 77%
c i 15.81 746 32 1  51  940  289 41% 11 579743 4074 77%
c i 15.81 746 32 1  51  941  289 41% 11 579743 4073 77%
c 
c  seconds   reductions  redundant   irredundant
c          MB    restarts       trail       variables
c           level   conflicts       glue         remaining
c 
c i 15.81 746 32 1  51  942  289 41% 11 579743 4072 77%
c i 15.82 746 32 1  53  951  297 41% 11 579743 4071 77%
c i 15.82 746 32 1  53  952  297 41% 11 579743 4070 77%
c i 15.82 746 32 1  53  953  297 41% 11 579743 4069 76%
c i 15.82 746 32 1  53  954  297 41% 11 579743 4068 76%
c i 15.84 746 32 1  53  957  299 41% 11 579743 4067 76%
c i 15.84 746 32 1  53  958  299 41% 11 579743 4066 76%
c i 15.84 746 32 1  53  959  299 41% 11 579743 4065 76%
c i 15.84 746 32 1  53  960  299 41% 11 579743 4064 76%
c i 15.84 746 32 1  53  961  299 41% 11 579743 4063 76%
c i 15.84 746 32 1  53  962  299 41% 11 579743 4062 76%
c i 15.84 746 32 1  53  965  299 41% 11 579743 4061 76%
c i 15.85 746 32 1  53  967  297 41% 11 579743 4060 76%
c i 15.85 746 32 1  53  968  297 41% 11 579743 4059 76%
c i 15.85 746 32 1  53  971  299 41% 11 579743 4058 76%
c i 15.85 746 32 1  53  973  300 41% 11 579743 4057 76%
c i 15.85 746 32 1  53  974  300 41% 11 579743 4056 76%
c i 15.85 746 32 1  53  975  300 42% 11 579743 4055 76%
c i 15.85 746 32 1  53  976  300 42% 11 579743 4054 76%
c i 15.85 746 32 1  53  977  300 42% 11 579743 4053 76%
c 
c  seconds   reductions  redundant   irredundant
c          MB    restarts       trail       variables
c           level   conflicts       glue         remaining
c 
c i 15.85 746 32 1  53  978  300 42% 11 579743 4052 76%
c i 15.85 746 32 1  53  979  300 42% 11 579743 4051 76%
c } 15.86 746 31 1  53 1007  311 42% 11 579743 4051 76%
c [ 15.86 746  0 1  53 1007  311  0% 0 579743 4051 76%
c O 15.87 746  3 1  53 1008  312 40% 3 579743 4051 76%
c - 17.61 947  8 2  53 1360  311 40% 7 579530 4051 76%
c i 17.62 948  8 2  53 1370  313 40% 7 579530 4030 76%
c i 17.64 948  8 2  53 1431  319 39% 7 579530 4023 76%
c i 17.73 948  8 2  53 1433  320 39% 7 579530 4022 76%
c i 17.73 948  8 2  53 1434  320 39% 7 579530 4021 76%
c i 17.74 948  8 2  53 1439  324 40% 7 579530 4020 76%
c i 17.74 948  8 2  53 1443  327 40% 7 579530 4019 76%
c i 17.84 948  9 2  53 1472  352 40% 8 579530 4018 76%
c i 17.84 948  9 2  53 1474  353 40% 8 579530 4017 76%
c i 17.84 948  9 2  53 1475  353 40% 8 579530 4016 75%
c i 17.84 948  9 2  53 1476  353 40% 8 579530 4015 75%
c i 17.84 948  9 2  53 1477  353 40% 8 579530 4014 75%
c i 18.21 948 14 2  53 1577  439 42% 11 579530 4013 75%
c i 18.61 948 17 2  53 1703  505 44% 13 579530 4012 75%
c i 18.63 948 17 2  53 1710  509 44% 13 579530 4011 75%
c 
c  seconds   reductions  redundant   irredundant
c          MB    restarts       trail       variables
c           level   conflicts       glue         remaining
c 
c i 18.69 948 17 2  53 1745  527 44% 13 579530 4010 75%
c i 18.70 948 17 2  53 1750  530 44% 13 579530 4009 75%
c i 18.70 948 17 2  53 1757  535 44% 13 579530 4008 75%
c i 18.70 948 17 2  53 1758  535 44% 13 579530 4007 75%
c i 18.82 948 17 2  53 1786  550 45% 13 579530 4006 75%
c i 18.84 948 17 2  53 1791  553 45% 13 579530 4005 75%
c i 18.95 948 18 2  53 1826  573 45% 14 579530 4004 75%
c i 18.97 948 18 2  53 1843  584 45% 14 579530 4003 75%
c i 19.08 948 18 2  53 1893  628 46% 14 579530 4002 75%
c i 19.09 948 18 2  53 1901  632 46% 14 579530 4001 75%
c i 19.12 948 18 2  53 1918  645 46% 14 579530 4000 75%
c - 20.77 933 21 3  54 2948 1256 49% 15 577199 4000 75%
c ] 21.42 917 21 3  54 3007 1302 38% 15 577199 4000 75%
c { 21.42 917 31 3  54 3007 1302 55% 11 577199 4000 75%
c F 21.44 917 31 3  54 3014 1309 55% 11 577199 4000 75%
c i 21.52 917 26 3  54 3287 1341 48% 10 577199 3991 75%
c i 21.59 917 25 3  54 3350 1367 47% 9 577199 3990 75%
c i 21.64 917 25 3  54 3404 1400 46% 9 577199 3989 75%
c i 22.01 917 26 3  72 3506 1438 45% 10 577199 3988 75%
c i 22.02 917 26 3  72 3507 1438 45% 10 577199 3987 75%
c 
c  seconds   reductions  redundant   irredundant
c          MB    restarts       trail       variables
c           level   conflicts       glue         remaining
c 
c i 22.02 917 26 3  73 3508 1438 45% 10 577199 3986 75%
c i 22.02 917 26 3  73 3509 1438 45% 10 577199 3985 75%
c i 22.02 917 26 3  73 3510 1438 45% 10 577199 3984 75%
c i 22.36 917 27 3  89 3568 1485 44% 10 577199 3983 75%
c i 23.44 917 28 3 130 3844 1696 42% 11 577199 3982 75%
c i 23.45 917 28 3 132 3849 1700 42% 11 577199 3981 75%
c i 23.86 917 29 3 159 3959 1792 41% 12 577199 3980 75%
c i 24.39 917 28 3 185 4279 1957 40% 11 577199 3979 75%
c d 26.36 917 28 3 264 5000 2318 39% 12 575439 3958 74%
c d 26.75 917 28 3 264 5000 2314 39% 12 575425 3954 74%
c 3 26.77 917 28 3 264 5000 4290 39% 12 575425 3954 74%
c 2 26.89 917 28 3 264 5000 4600 39% 12 575353 3879 73%
c p 37.87 917 28 3 264 5000 13722 39% 12 575353 3737 70%
c d 38.54 917 28 3 264 5000 11964 39% 12 296580 3717 70%
c d 38.73 917 28 3 264 5000 11953 39% 12 162128 3713 70%
c - 39.13 732 28 4 281 5061 1861 39% 12 162128 3713 70%
c # 40.01 732 28 4 395 6016 2521 37% 13 162128 3713 70%
c - 40.23 690 25 5 395 6877 1973 35% 12 162128 3713 70%
c } 40.23 690 24 5 395 7007 1986 34% 12 162128 3713 70%
c [ 40.23 690 21 5 395 7007 1986 38% 15 162128 3713 70%
c 
c  seconds   reductions  redundant   irredundant
c          MB    restarts       trail       variables
c           level   conflicts       glue         remaining
c 
c i 40.23 690 21 5 395 7021 1986 35% 15 162128 3572 67%
c - 41.33 690 18 6 396 9054 2142 25% 13 115984 3572 67%
c I 41.61 690 18 6 397 10017 2750 26% 13 115984 3572 67%
c - 42.04 690 17 7 399 11291 2749 26% 13 115984 3572 67%
c i 42.50 690 17 7 399 12553 3432 26% 12 115984 3553 67%
c - 43.08 690 18 8 400 13845 2159 28% 13 91981 3553 67%
c 2 43.46 690 19 8 400 15000 4404 28% 14 91908 3553 67%
c p 44.24 690 19 8 400 15000 10061 28% 14 91908 3522 66%
c d 44.30 690 19 8 400 15000 9849 28% 14 91848 3519 66%
c ] 44.32 690 19 8 400 15009 9856 28% 14 91848 3519 66%
c { 44.32 690 24 8 400 15009 9856 38% 12 91848 3519 66%
c B 44.34 690 24 8 400 15018 9864 38% 12 91848 3519 66%
c s 44.63 690 24 8 469 15594 9944 38% 12 89321 3519 66%
c v 45.25 690 24 8 469 15594 9944 38% 12 89260 3519 66%
c w 45.27 690 24 8 469 15594 9942 38% 12 89260 3519 66%
c t 45.27 690 24 8 469 15594 9911 38% 12 89207 3519 66%
c e 45.42 690 24 8 469 15594 4386 38% 12 83794 569 11%
c s 45.50 690 24 8 469 15594 4386 38% 12 83432 569 11%
c - 46.15 690 24 9 618 16545 3343 66% 13 83432 569 11%
c - 46.77 690 21 10 765 19547 3643 68% 12 83432 569 11%
c 
c  seconds   reductions    redundant   irredundant
c          MB     restarts        trail      variables
c           level     conflicts       glue       remaining
c 
c W 47.14 690 20 10 856 21021 4638 68% 12 83432 569 11%
c i 47.31 690 20 10 885 21618 4946 68% 12 83432 568 11%
c - 47.66 690 20 11 971 22848 4179 67% 12 83429 568 11%
c - 48.52 690 19 12 1152 26449 4809 67% 12 83429 568 11%
c F 48.93 690 19 12 1177 28022 5675 66% 12 83429 568 11%
c 2 49.57 690 18 12 1305 30005 7203 66% 12 83427 568 11%
c p 49.90 690 18 12 1305 30005 8460 66% 12 83427 551 10%
c - 50.21 690 18 13 1379 30349 5171 66% 12 83242 551 10%
c } 50.48 690 19 13 1502 31009 5621 66% 12 83242 551 10%
c [ 50.48 690 19 13 1502 31009 5621 179% 14 83242 551 10%
c - 51.19 690 20 14 1504 34552 6092 144% 15 83242 551 10%
c B 51.51 690 20 14 1505 36028 7024 135% 16 83242 551 10%
c - 52.31 690 20 15 1507 39053 6295 121% 16 83242 551 10%
c - 53.31 690 20 16 1509 43856 6674 108% 16 83242 551 10%
c s 53.56 690 21 16 1509 44380 7030 107% 16 82285 551 10%
c v 54.05 690 21 16 1509 44380 7030 107% 16 82250 551 10%
c w 54.07 690 21 16 1509 44380 7027 107% 16 82250 551 10%
c t 54.08 690 21 16 1509 44380 7025 107% 16 82248 551 10%
c e 54.22 690 21 16 1509 44380 7017 107% 16 82246 549 10%
c s 54.33 690 21 16 1509 44380 7016 107% 16 81755 549 10%
c 
c  seconds   reductions     redundant    irredundant
c          MB     restarts         trail       variables
c           level      conflicts        glue       remaining
c 
c W 55.00 690 21 16 1509 45029 7395 106% 16 81755 549 10%
c - 56.04 690 21 17 1510 48956 7146 99% 16 81755 549 10%
c d 56.44 690 21 17 1510 50007 7861 98% 17 81753 548 10%
c p 56.78 690 21 17 1510 50007 9666 98% 17 81753 546 10%
c d 56.83 690 21 17 1510 50007 9605 98% 17 81567 545 10%
c - 58.16 690 22 18 1511 54358 7594 93% 17 81567 545 10%
c O 58.38 690 22 18 1511 55031 8065 93% 17 81567 545 10%
c - 59.73 690 21 19 1515 60063 7689 89% 17 81567 545 10%
c ] 60.38 690 21 19 1517 63011 9562 87% 17 81567 545 10%
c { 60.38 690 19 19 1517 63011 9562 66% 12 81567 545 10%
c B 61.01 690 18 19 1638 66032 11144 66% 12 81567 545 10%
c - 61.04 690 18 20 1642 66064 7790 66% 12 81567 545 10%
c i 61.51 690 17 20 1728 68544 9012 66% 12 81567 544 10%
c i 61.67 690 17 20 1770 69732 9567 66% 12 81567 543 10%
c - 62.41 690 17 21 1974 72364 7370 66% 12 81563 543 10%
c i 62.69 690 17 21 1979 73664 7966 66% 12 81563 542 10%
c d 63.10 690 17 21 2038 75010 7328 66% 12 81050 540 10%
c 2 63.11 690 17 21 2038 75010 7633 66% 12 81050 523 10%
c p 63.44 690 17 21 2038 75010 8671 66% 12 81050 518 10%
c W 64.62 690 17 21 2258 78035 10217 65% 12 80985 518 10%
c 
c  seconds   reductions     redundant   irredundant
c          MB     restarts         trail      variables
c           level      conflicts       glue       remaining
c 
c - 64.89 690 17 22 2296 78964 7651 65% 12 80985 518 10%
c i 65.88 690 16 22 2516 83053 9823 65% 12 80985 517 10%
c - 66.69 690 16 23 2810 85864 8833 65% 12 80982 517 10%
c s 67.26 690 16 23 2954 87691 9862 65% 12 77248 517 10%
c v 67.70 690 16 23 2954 87691 9862 65% 12 77160 517 10%
c w 67.73 690 16 23 2954 87691 9859 65% 12 77160 517 10%
c t 67.74 690 16 23 2954 87691 9843 65% 12 77160 517 10%
c e 67.85 690 16 23 2954 87691 9787 65% 12 77147 506 10%
c s 68.00 690 16 23 2954 87691 9786 65% 12 74650 506 10%
c # 68.92 690 16 23 3111 91036 11518 65% 12 74650 506 10%
c - 69.28 690 16 24 3176 93064 9571 65% 12 74650 506 10%
c - 70.69 690 15 25 3472 100567 9759 65% 11 74650 506 10%
c i 70.92 690 15 25 3492 101641 10288 65% 11 74650 504  9%
c i 70.98 690 15 25 3518 101831 10381 65% 11 74650 503  9%
c d 71.74 690 15 25 3693 105011 8620 65% 11 62483 502  9%
c 2 71.76 690 15 25 3693 105011 8931 65% 11 62483 501  9%
c p 72.01 690 15 25 3693 105011 10255 65% 11 62483 499  9%
c B 72.04 690 15 25 3694 105045 10258 65% 11 62483 499  9%
c i 72.55 690 15 25 3881 107704 11620 65% 11 62483 481  9%
c - 72.79 691 15 26 3914 108367 5742 65% 11 58756 481  9%
c 
c  seconds   reductions      redundant   irredundant
c          MB     restarts          trail      variables
c           level      conflicts        glue       remaining
c 
c i 72.93 691 15 26 3914 109102 6020 65% 11 58756 480  9%
c - 74.49 691 15 27 4200 116467 7809 65% 11 58753 480  9%
c W 75.73 691 14 27 4359 120046 9548 65% 11 58753 480  9%
c - 76.74 691 14 28 4624 124867 9759 65% 11 58753 480  9%
c } 77.16 691 14 28 4735 127016 10741 65% 11 58753 480  9%
c [ 77.16 691 21 28 4735 127016 10741 87% 17 58753 480  9%
c i 77.95 691 21 28 4735 130349 12644 85% 17 58753 468  9%
c - 78.77 691 21 29 4738 133569 8694 63% 17 57910 468  9%
c i 78.83 691 21 29 4738 133776 8775 62% 17 57910 419  8%
c i 79.07 691 21 29 4738 134821 9412 63% 17 57910 397  7%
c i 79.10 691 21 29 4738 134896 9461 63% 17 57910 396  7%
c i 79.13 691 21 29 4739 134987 9519 63% 17 57910 395  7%
c i 79.21 691 21 29 4739 135193 9649 63% 17 57910 394  7%
c i 79.23 691 21 29 4739 135293 9713 63% 17 57910 393  7%
c i 79.23 691 21 29 4739 135294 9713 63% 17 57910 392  7%
c i 79.23 691 21 29 4739 135295 9713 63% 17 57910 391  7%
c B 79.44 691 21 29 4740 136049 10184 63% 16 57910 391  7%
c i 79.55 691 21 29 4740 136513 10395 62% 16 57910 390  7%
c i 79.59 691 21 29 4740 136655 10472 62% 16 57910 368  7%
c i 79.70 691 21 29 4741 137165 10785 62% 16 57910 292  5%
c 
c  seconds   reductions       redundant   irredundant
c          MB     restarts           trail      variables
c           level      conflicts         glue       remaining
c 
c i 79.70 691 21 29 4741 137168 10787 62% 16 57910 291  5%
c i 79.70 691 21 29 4741 137169 10787 62% 16 57910 274  5%
c i 79.70 691 21 29 4741 137170 10787 62% 16 57910 262  5%
c i 79.70 691 21 29 4741 137171 10787 62% 16 57910 261  5%
c ] 79.70 691 21 29 4741 137176 10785 62% 16 57910 196  4%
c 0 79.70 691 21 29 4741 137176 10785 62% 16 57910 196  4%
c 
c --- [ writing output ] -----------------------------------------------------
c 
c writing simplified CNF to DIMACS file 'simp/12.cubes74.adj.simp1'
c * 79.70 691 21 29 4741 137176 10785 62% 16 57910 196  4%
c opening file to write 'simp/12.cubes74.adj.simp1'
c writing 'p cnf 5320 1' header
c closing file 'simp/12.cubes74.adj.simp1'
c after writing 15 bytes 0.0 MB
c wrote 1 clauses in 0.00 seconds process time
c 
c --- [ writing extension ] --------------------------------------------------
c 
c writing extension stack to 'simp/12.cubes74.adj.ext1'
c opening file to write 'simp/12.cubes74.adj.ext1'
c closing file 'simp/12.cubes74.adj.ext1'
c after writing 0 bytes 0.0 MB
c wrote 0 witnesses in 0.00 seconds process time
c 
c --- [ result ] -------------------------------------------------------------
c 
s UNSATISFIABLE
c 
c --- [ run-time profiling ] -------------------------------------------------
c 
c process time taken by individual solving procedures
c (percentage relative to process time for solving)
c 
c        52.27   73.60% search
c        31.33   44.12% unstable
c        19.50   27.45% stable
c        18.75   26.40% simplify
c        12.99   18.29% probe
c         8.68   12.22% parse
c         1.60    2.26% vivify
c         0.94    1.32% walk
c         0.79    1.12% elim
c         0.67    0.95% subsume
c         0.50    0.71% lucky
c         0.14    0.20% ternary
c   =================================
c        71.02   89.10% solve
c 
c last line shows process time for solving
c (percentage relative to total process time)
c 
c --- [ statistics ] ---------------------------------------------------------
c 
c chronological:             29345        21.39 %  of conflicts
c conflicts:                137176      1931.53    per second
c decisions:                243643      3430.66    per second
c eliminated:                 2963        55.70 %  of all variables
c fixed:                      2104        39.55 %  of all variables
c learned:                  134093        97.75 %  per conflict
c learned_lits:           12131467       100.00 %  learned literals
c minimized:                     0         0.00 %  learned literals
c shrunken:                7753522        63.91 %  learned literals
c minishrunken:             660008         5.44 %  learned literals
c propagations:            9884366         0.14 M  per second
c reduced:                   50283        36.66 %  per conflict
c rephased:                     16      8573.50    interval
c restarts:                   4741        28.93    interval
c stabilizing:                   4        38.03 %  of conflicts
c substituted:                  57         1.07 %  of all variables
c subsumed:                  67478         2.60 %  of all clauses
c strengthened:              16978         0.66 %  of all clauses
c ternary:                    5267         0.64 %  of resolved
c vivified:                    216         0.01 %  of all clauses
c walked:                        4     34294.00    interval
c weakened:                   6123         2.92    average size
c 
c seconds are measured in process time for solving
c 
c --- [ resources ] ----------------------------------------------------------
c 
c total process time since initialization:        79.70    seconds
c total real time since initialization:           79.86    seconds
c maximum resident set size of process:         1174.95    MB
c 
c --- [ shutting down ] ------------------------------------------------------
c 
c exit 20
WARNING! DIMACS header mismatch: wrong number of variables.
============================[ Problem Statistics ]=============================
|                                                                             |
|  Number of variables:             0                                         |
|  Number of clauses:               0                                         |
|  Parse time:                   0.00 s                                       |
|  Simplification time:          0.00 s                                       |
|                                                                             |
===============================================================================
Solved by simplification
database reductions   : 0
restarts              : 0
conflicts             : 0              (0 /sec)
decisions             : 0              (-nan % random) (0 /sec)
propagations          : 0              (0 /sec)
conflict literals     : 0              (-nan % deleted)
actual reward         : -nan
Memory used           : 5.00 MB
CPU time              : 0.000865 s

UNSATISFIABLE
